20

C   0.000000   0.000000   0.000000
C  -0.000000   1.149067   0.964181
H   0.979796   1.091869   1.654637
H  -0.979796   1.091869   1.654637
H   0.000000   2.182716   0.354616
N  -1.224745   0.071497  -0.863069
H  -1.224745  -0.847756  -1.634414
H  -2.204541   0.014299  -0.172614
H  -0.898146   0.166827  -2.013828
H  -1.877942   1.028882  -0.552028
N   1.224745   0.071497  -0.863069
H   1.224745  -0.847756  -1.634414
H   1.224745   1.105146  -1.472635
H   1.877942  -0.924020  -0.713807
H   1.877942   1.028882  -0.552028
N   0.000000  -1.292061   0.761957
H   0.000000  -2.211315  -0.009388
H   0.979796  -1.349259   1.452412
H  -0.979795  -1.923963   0.477878
H  -0.000000  -1.061907   1.939678