18

C   0.000000   0.000000   0.000000
O   0.000000   0.000000   1.500000
H  -1.131371   0.000000   1.900000
N  -1.414214   0.000000  -0.500000
H  -1.979899  -0.979796  -0.100000
H  -1.979899   0.979796  -0.100000
H  -1.602775  -0.979796  -1.166667
H  -1.602775   0.979796  -1.166667
N   0.707107   1.224745  -0.500000
H   1.838478   1.224745  -0.100000
H   0.141421   2.204541  -0.100000
H   1.649916   0.898146  -1.166667
H  -0.047140   1.877942  -1.166667
N   0.707107  -1.224745  -0.500000
H   1.838478  -1.224745  -0.100000
H   0.141421  -2.204541  -0.100000
H   1.649916  -0.898146  -1.166667
H  -0.047140  -1.877942  -1.166667