15

C   0.000000   0.000000   0.000000
O  -0.000000   1.149067   0.964181
H  -0.979796   1.819100   0.787956
C  -1.224745   0.071497  -0.863069
H  -1.224745  -0.847756  -1.634414
H  -2.204541   0.014299  -0.172614
H  -1.224745   1.105146  -1.472634
C   1.224745   0.071497  -0.863069
H   1.224745  -0.847756  -1.634414
H   2.204541   0.014299  -0.172614
H   1.224745   1.105146  -1.472635
C   0.000000  -1.292061   0.761957
H   0.000000  -2.211315  -0.009388
H   0.979796  -1.349259   1.452412
H  -0.979796  -1.349259   1.452412