18

C   0.000000   0.000000   0.000000
O  -0.000000   1.149067   0.964181
H  -0.979796   1.819100   0.787956
N  -1.224745   0.071497  -0.863069
H  -2.204541   0.014299  -0.172614
H  -1.224745   1.105146  -1.472634
H  -1.877942  -0.924020  -0.713807
H  -0.898146   0.166827  -2.013828
N   1.224745   0.071497  -0.863069
H   2.204541   0.014299  -0.172614
H   1.224745   1.105146  -1.472635
H   1.877942  -0.924020  -0.713807
H   0.898147   0.166826  -2.013828
N   0.000000  -1.292061   0.761957
H   0.979796  -1.349259   1.452412
H  -0.979796  -1.349259   1.452412
H   0.979796  -1.923963   0.477878
H  -0.979795  -1.923963   0.477878