  14
    -1.892656 !GC
 C          0.0000000000        0.0000000000        0.0000000000
 C          1.5263202243        0.0000000000        0.0000000000
 C          2.1096039975        1.3626731620        0.0000000000
 C          2.2970315958        2.1617033125        1.1045007826
 C          2.8242342475        3.4267519206        1.0651161798
 H         -0.3678526287        0.5636196009        0.8551000706
 H         -0.3758798130       -1.0179981642        0.0642950128
 H         -0.3895941499        0.4503130018       -0.9096109888
 H          1.9119842207       -0.5570721095        0.8551413585
 H          1.8682967032       -0.5272806595       -0.9043228477
 H          2.3620712754        1.7531587031       -0.9769649517
 H          2.0093915619        1.7639859872        2.0699794663
 H          2.9469660022        4.0140397865        1.9562028038
 H          3.1321121724        3.8707268094        0.1348362410
  14
    -1.802827 !GC
 C          0.0000000000        0.0000000000        0.0000000000
 C          1.5260282769        0.0000000000        0.0000000000
 C          2.1132078378        1.3608674977        0.0000000000
 C          2.2687769505        2.1761637442        1.0975436232
 C          2.8047660925        3.4377720374        1.0561516800
 H         -0.3856555340        0.5667493682        0.8441162678
 H         -0.3685147222       -1.0221827762        0.0609229436
 H         -0.3793247548        0.4535453700       -0.9128110647
 H          1.9120369171       -0.5575386689        0.8551013374
 H          1.8682172623       -0.5286481281       -0.9039568266
 H          2.4006921362        1.7339094049       -0.9744645305
 H          1.9451020041        1.7966338717        2.0590028602
 H          2.8981130335        4.0385300932        1.9418488046
 H          3.1432935522        3.8676468427        0.1296728050
  14
    -1.290841 !GC
 C          0.0000000000        0.0000000000        0.0000000000
 C          1.5417588675        0.0000000000        0.0000000000
 C          2.0622810333        1.3865351396        0.0000000000
 C          2.0038841504        2.2564605009        1.0644866116
 C          2.4764753564        3.5435902205        1.0457048772
 H         -0.3717169363        0.4809854403        0.9016598386
 H         -0.3728796833       -1.0204655346       -0.0346488037
 H         -0.3805893680        0.5424905243       -0.8618968977
 H          1.9112527522       -0.5504784226        0.8616504740
 H          1.8571013346       -0.5005368865       -0.9221500983
 H          2.4903263839        1.7275187581       -0.9331289109
 H          1.5550410391        1.8957437161        1.9828670190
 H          2.4043694744        4.1823875256        1.9063229463
 H          2.9308714726        3.9547926576        0.1616701834
  14
    -1.061521 !GC
 C          0.0000000000        0.0000000000        0.0000000000
 C          1.5418600524        0.0000000000        0.0000000000
 C          2.0613452939        1.3868663086        0.0000000000
 C          3.3899242786        1.7371110068       -0.0738655099
 C          3.8574116331        3.0261713391       -0.0701461767
 H         -0.3754090970        0.5146664633        0.8813180625
 H         -0.3730563218       -1.0210156783        0.0031391824
 H         -0.3766917810        0.5099526620       -0.8833730569
 H          1.8822680723       -0.5247027073        0.8948503500
 H          1.8865866935       -0.5276451412       -0.8904343441
 H          1.3157841221        2.1677339765        0.0676895293
 H          4.1169111803        0.9356503945       -0.1370922628
 H          4.9078787544        3.2441097796       -0.1257976961
 H          3.1818971835        3.8609499422       -0.0083419896
  14
    -1.030269 !GC
 C          0.0000000000        0.0000000000        0.0000000000
 C          1.5331204289        0.0000000000        0.0000000000
 C          2.0139413864        1.4052231609        0.0000000000
 C          1.6663244619        2.2738672982       -1.0148092088
 C          2.0567406546        3.5814175144       -1.1028579781
 H         -0.3719420391       -1.0216414071       -0.0280220921
 H         -0.3731393473        0.5224580457       -0.8771540687
 H         -0.3910903208        0.4874382189        0.8898456422
 H          1.9095060549       -0.5453972130        0.8663335808
 H          1.8757015634       -0.5153272029       -0.9048595073
 H          2.6499304645        1.7439839240        0.8032081299
 H          1.0250238358        1.8721646364       -1.7946895449
 H          1.7448417946        4.2102029428       -1.9160275690
 H          2.6887813204        4.0215455471       -0.3513803498
  14
    -0.895925 !GC
 C          0.0000000000        0.0000000000        0.0000000000
 C          1.5352868199        0.0000000000        0.0000000000
 C          2.0250620652        1.3956934559        0.0000000000
 C          1.4832829130        2.3951411143       -0.7759925995
 C          1.9182489874        3.6944796266       -0.8023764426
 H         -0.3800599881       -1.0156055152        0.0819437573
 H         -0.3603655276        0.4357526828       -0.9295634727
 H         -0.3865540761        0.5770081208        0.8368656789
 H          1.8999758351       -0.5280203279        0.8814908058
 H          1.8853102055       -0.5238345690       -0.8968718053
 H          2.8729361390        1.6071562891        0.6365237077
 H          0.6488778799        2.1208948428       -1.4141143473
 H          1.4576899873        4.4297188755       -1.4358848090
 H          2.7399106844        4.0162404322       -0.1870928949
  14
    -0.860688 !GC
 C          0.0000000000        0.0000000000        0.0000000000
 C          1.5357904734        0.0000000000        0.0000000000
 C          2.0228468513        1.3969092790        0.0000000000
 C          1.4446452464        2.4046303172       -0.7382334571
 C          1.8750781772        3.7051578696       -0.7671801422
 H         -0.3591931370       -1.0225790159        0.0937315576
 H         -0.3835529847        0.4295819273       -0.9219152227
 H         -0.3839716293        0.5797474861        0.8357825739
 H          1.8992543203       -0.5269789907        0.8821475931
 H          1.8851495120       -0.5234322896       -0.8970343905
 H          2.8977970579        1.6024087035        0.6006982623
 H          0.5823209326        2.1360398796       -1.3405197690
 H          1.3844447178        4.4480392459       -1.3683733283
 H          2.7223202974        4.0206891664       -0.1842418644
  14
    -0.529794 !GC
 C          0.0000000000        0.0000000000        0.0000000000
 C          1.5330038518        0.0000000000        0.0000000000
 C          2.0140279853        1.4051005496        0.0000000000
 C          1.6612330895        2.2757424351       -1.0112180142
 C          2.0519195127        3.5831203495       -1.0993158932
 H         -0.3888141527        0.5268134878       -0.8682591405
 H         -0.3725450104        0.4832024890        0.8994961854
 H         -0.3746856242       -1.0206114671       -0.0171663340
 H          1.9091335881       -0.5455733168        0.8663219198
 H          1.8757085723       -0.5153802682       -0.9047274527
 H          2.6541153468        1.7422478808        0.8004341425
 H          1.0170885032        1.8752571574       -1.7891379024
 H          1.7388285726        4.2124432600       -1.9113888704
 H          2.6889747989        4.0212950350       -0.3512827593
  14
    -0.467034 !GC
 C          0.0000000000        0.0000000000        0.0000000000
 C          1.5354851524        0.0000000000        0.0000000000
 C          2.0255775745        1.3955216709        0.0000000000
 C          3.2690739165        1.7681571454       -0.4575591616
 C          3.7599053858        3.0476661114       -0.4491182803
 H         -0.3806233883        0.5411913808        0.8627359053
 H         -0.3580270061       -1.0263445988        0.0480325172
 H         -0.3885981829        0.4698982656       -0.9001711672
 H          1.9286884558       -0.5520001775        0.8481424082
 H          1.8557735039       -0.4967249984       -0.9282823229
 H          1.3704529943        2.1344481224        0.4401803739
 H          3.9004868732        0.9794454928       -0.8550361893
 H          4.7416149248        3.2765531571       -0.8198407666
 H          3.1719466516        3.8641121990       -0.0688112160
  14
    -0.399819 !GC
 C          0.0000000000        0.0000000000        0.0000000000
 C          1.5355237591        0.0000000000        0.0000000000
 C          2.0227300252        1.3968249401        0.0000000000
 C          3.2414792792        1.7778739741       -0.5143230149
 C          3.7314749995        3.0576970481       -0.5110604173
 H         -0.3584306738        0.5580786335        0.8629522999
 H         -0.3843044773       -1.0153498346        0.0471392614
 H         -0.3840106101        0.4747951205       -0.8993960295
 H          1.9283587560       -0.5521805074        0.8479789642
 H          1.8558463962       -0.4955989594       -0.9287772504
 H          1.3915123735        2.1274854415        0.4860820740
 H          3.8508365232        0.9960805662       -0.9575363917
 H          4.6935925475        3.2941027509       -0.9261144466
 H          3.1626394171        3.8670492183       -0.0884242430
  14
    -0.397726 !GC
 C          0.0000000000        0.0000000000        0.0000000000
 C          1.5354523493        0.0000000000        0.0000000000
 C          2.0261202977        1.3954692058        0.0000000000
 C          1.4745458101        2.3987938900       -0.7638610130
 C          1.9095511088        3.6979775810       -0.7894784865
 H         -0.3771207585        0.4348135252       -0.9220472162
 H         -0.3594204613        0.5910069426        0.8402560489
 H         -0.3903987900       -1.0112040320        0.0879887623
 H          1.8994508965       -0.5276230568        0.8818822813
 H          1.8850419123       -0.5242918651       -0.8968385579
 H          2.8817419997        1.6037608914        0.6271762445
 H          0.6312754901        2.1282655604       -1.3915888164
 H          1.4405977877        4.4366136646       -1.4128343298
 H          2.7404209352        4.0159359021       -0.1846434073
  14
    -0.386379 !GC
 C          0.0000000000        0.0000000000        0.0000000000
 C          1.5355870943        0.0000000000        0.0000000000
 C          2.0218762303        1.3971009431        0.0000000000
 C          1.4508215465        2.4019608481       -0.7477955142
 C          1.8820068522        3.7023740223       -0.7779562289
 H         -0.3585285876        0.4332548277       -0.9318719878
 H         -0.3872561019        0.5826969005        0.8318507410
 H         -0.3809624247       -1.0148058381        0.0802099211
 H          1.8998196312       -0.5271156780        0.8818548344
 H          1.8852528680       -0.5231911763       -0.8969994396
 H          2.8920596529        1.6046410871        0.6069914072
 H          0.5957088782        2.1304790388       -1.3593411857
 H          1.3968894704        4.4430289382       -1.3862118801
 H          2.7213970037        4.0208498914       -0.1855570636
  14
    -0.374192 !GC
 C          0.0000000000        0.0000000000        0.0000000000
 C          1.5326953766        0.0000000000        0.0000000000
 C          2.0810443297        1.3795181781        0.0000000000
 C          2.9477501606        1.8701071699        0.9523873178
 C          3.4536615333        3.1431518738        0.9625992968
 H         -0.3794235351        0.5274959976       -0.8726854131
 H         -0.3780862248        0.4897133718        0.8935638075
 H         -0.3764268471       -1.0197877947       -0.0272864326
 H          1.9025514511       -0.5506183853        0.8672787829
 H          1.8728770890       -0.5234610638       -0.9012365831
 H          1.7571827155        2.0318218543       -0.7988468519
 H          3.2498776254        1.1974778076        1.7471994132
 H          4.1284648847        3.4751030345        1.7296819945
 H          3.1879998938        3.8518207948        0.1978185820
  14
    -0.373705 !GC
 C          0.0000000000        0.0000000000        0.0000000000
 C          1.5325615148        0.0000000000        0.0000000000
 C          2.0825177431        1.3790883400        0.0000000000
 C          2.9823236542        1.8555347566        0.9285401635
 C          3.4940888423        3.1261793977        0.9355720853
 H         -0.3722243700       -1.0219779660       -0.0125677204
 H         -0.3792976184        0.5240161795       -0.8736868188
 H         -0.3821290410        0.4907446667        0.8920961532
 H          1.9018936711       -0.5510494922        0.8672274484
 H          1.8725676773       -0.5236834896       -0.9015348995
 H          1.7354044514        2.0414762877       -0.7805042120
 H          3.3094718220        1.1724552533        1.7041453604
 H          4.1938626570        3.4477470470        1.6847196878
 H          3.2031396538        3.8454622571        0.1898520066
  14
    -0.367865 !GC
 C          0.0000000000        0.0000000000        0.0000000000
 C          1.5329084705        0.0000000000        0.0000000000
 C          2.0829198132        1.3789585107        0.0000000000
 C          2.9821236313        1.8555019190        0.9288264782
 C          3.4929682490        3.1262962411        0.9367386234
 H         -0.3762705976        0.5240042205       -0.8756316260
 H         -0.3745093618        0.4972268872        0.8907095151
 H         -0.3848657955       -1.0162997368       -0.0215489901
 H          1.9032472391       -0.5509592828        0.8668252136
 H          1.8731689522       -0.5233186621       -0.9015812754
 H          1.7361384587        2.0411508535       -0.7808388133
 H          3.3085464318        1.1726223881        1.7046897575
 H          4.1951693603        3.4466193445        1.6838374217
 H          3.2045116481        3.8446183842        0.1895145400
  14
    -0.367591 !GC
 C          0.0000000000        0.0000000000        0.0000000000
 C          1.5326575269        0.0000000000        0.0000000000
 C          2.0811316109        1.3794822816        0.0000000000
 C          2.9508717640        1.8688072707        0.9502855227
 C          3.4560976321        3.1421277935        0.9607548364
 H         -0.3758319526       -1.0208341770       -0.0210890637
 H         -0.3808668579        0.5250770168       -0.8723682857
 H         -0.3772730336        0.4884370796        0.8948778227
 H          1.9025918246       -0.5503599049        0.8673834313
 H          1.8727117181       -0.5236773598       -0.9011676443
 H          1.7539403521        2.0331472811       -0.7964857910
 H          3.2546641345        1.1956443054        1.7440770256
 H          4.1343009736        3.4727736991        1.7253368426
 H          3.1889875775        3.8510952861        0.1969003913
  14
    -0.338826 !GC
 C          0.0000000000        0.0000000000        0.0000000000
 C          1.5331666055        0.0000000000        0.0000000000
 C          2.0143810182        1.4051359480        0.0000000000
 C          1.6702620494        2.2722849496       -1.0174944692
 C          2.0602940341        3.5801311514       -1.1058476098
 H         -0.3718718507        0.5018233337        0.8905450227
 H         -0.3898299612       -1.0143807057       -0.0192553734
 H         -0.3743766736        0.5349280551       -0.8696615513
 H          1.9093586174       -0.5452354165        0.8665869925
 H          1.8757318839       -0.5158277662       -0.9046973672
 H          2.6475346984        1.7446405850        0.8054360112
 H          1.0333879252        1.8686746829       -1.8002097326
 H          1.7524415310        4.2066829571       -1.9222964594
 H          2.6899900906        4.0218154018       -0.3530748320
  14
    -0.318096 !GC
 C          0.0000000000        0.0000000000        0.0000000000
 C          1.5419651484        0.0000000000        0.0000000000
 C          1.9930180255        1.4112168366        0.0000000000
 C          1.1005301065        2.4611913320        0.0253394017
 C          1.4402900835        3.7871412659        0.0286285157
 H         -0.3841669001       -1.0173023927        0.0002713176
 H         -0.3712295987        0.5156281726       -0.8820492798
 H         -0.3719345421        0.5159890763        0.8814549178
 H          1.8895155511       -0.5199019826        0.8936090468
 H          1.8895015802       -0.5194017037       -0.8939202859
 H          3.0546564895        1.6071777986       -0.0193329896
 H          0.0462439368        2.1994560113        0.0417345976
 H          0.6950401474        4.5602439707        0.0490072292
 H          2.4709651191        4.0935850482        0.0127486901
  14
    -0.243467 !GC
 C          0.0000000000        0.0000000000        0.0000000000
 C          1.5352489702        0.0000000000        0.0000000000
 C          2.0251502658        1.3956628548        0.0000000000
 C          1.4809817872        2.3960279831       -0.7731534918
 C          1.9167351485        3.6951001488       -0.7999341399
 H         -0.3764712734        0.5790479390        0.8399943721
 H         -0.3631621344       -1.0218339052        0.0914796643
 H         -0.3873938650        0.4334099551       -0.9187445126
 H          1.9000163162       -0.5277593666        0.8815890762
 H          1.8851453447       -0.5240506466       -0.8968037667
 H          2.8758004236        1.6060698249        0.6333021247
 H          0.6452219560        2.1224983168       -1.4098912029
 H          1.4535000236        4.4314305463       -1.4301405258
 H          2.7394807714        4.0161038469       -0.1858843661
  14
    -0.236715 !GC
 C          0.0000000000        0.0000000000        0.0000000000
 C          1.5356249440        0.0000000000        0.0000000000
 C          2.0217879361        1.3971312179        0.0000000000
 C          1.4530439975        2.4011058433       -0.7507190107
 C          1.8834669995        3.7017755880       -0.7804610969
 H         -0.3621435766        0.5901452837        0.8397712327
 H         -0.3844806774       -1.0128748949        0.0846790864
 H         -0.3801187735        0.4407726178       -0.9183261081
 H          1.8997791502       -0.5273766604        0.8817567175
 H          1.8854176968       -0.5229751065       -0.8970672995
 H          2.8893022446        1.6056834521        0.6103086232
 H          0.5992386817        2.1289300554       -1.3636947261
 H          1.4009235841        4.4413771536       -1.3921143993
 H          2.7218112021        4.0209889226       -0.1867926201
  14
    -0.236295 !GC
 C          0.0000000000        0.0000000000        0.0000000000
 C          1.5263664010        0.0000000000        0.0000000000
 C          2.1100356102        1.3625569765        0.0000000000
 C          2.2936299849        2.1628328539        1.1044420266
 C          2.8221890339        3.4275470484        1.0657837119
 H         -0.3677818794        0.4431982746       -0.9234712644
 H         -0.3925543123        0.5565641618        0.8471060383
 H         -0.3728742098       -1.0196066290        0.0597399672
 H          1.9118378373       -0.5569154475        0.8553984347
 H          1.8683265426       -0.5277818427       -0.9041546494
 H          2.3661900189        1.7513260490       -0.9769412526
 H          2.0003036907        1.7670087441        2.0691467027
 H          2.9398702631        4.0160569446        1.9567633461
 H          3.1335525020        3.8709341454        0.1361894117
  14
    -0.223073 !GC
 C          0.0000000000        0.0000000000        0.0000000000
 C          1.5261448540        0.0000000000        0.0000000000
 C          2.1131314505        1.3610054259        0.0000000000
 C          2.2628090869        2.1786988888        1.0966585784
 C          2.7994879747        3.4401080126        1.0553332085
 H         -0.3687643754        0.4556527443       -0.9160539753
 H         -0.3691101515        0.5782783142        0.8449565718
 H         -0.3957051157       -1.0114168155        0.0575270685
 H          1.9124087738       -0.5573618673        0.8551135580
 H          1.8682093717       -0.5285957821       -0.9040898917
 H          2.4054874071        1.7320909791       -0.9739211347
 H          1.9355516413        1.8005402885        2.0576397531
 H          2.8914314536        4.0414673723        1.9409729249
 H          3.1440474728        3.8675615829        0.1296791164
  14
    -0.222613 !GC
 C          0.0000000000        0.0000000000        0.0000000000
 C          1.5419018132        0.0000000000        0.0000000000
 C          1.9938799600        1.4109639564        0.0000000000
 C          2.6231438140        1.9741328705       -1.0892760388
 C          3.0769168903        3.2636189427       -1.1603750716
 H         -0.3840696372        0.5414854240       -0.8612465374
 H         -0.3682653079        0.4695557738        0.9082738827
 H         -0.3749911708       -1.0198336357       -0.0357027854
 H          1.9183229176       -0.5458266386        0.8602950909
 H          1.8602281132       -0.4918795744       -0.9255151168
 H          1.8419493611        1.9949779373        0.8952883618
 H          2.7579286006        1.3319943912       -1.9552043815
 H          3.5592821138        3.6441986390       -2.0412426046
 H          2.9656371811        3.9355165260       -0.3279520404
  14
    -0.219865 !GC
 C          0.0000000000        0.0000000000        0.0000000000
 C          1.5262876736        0.0000000000        0.0000000000
 C          2.0459295074        1.3887200001        0.0000000000
 C          2.5396947461        1.9995891095       -1.1327241118
 C          3.0377556151        3.2737231932       -1.1850956978
 H         -0.3811316788       -1.0168459279        0.0589498129
 H         -0.3644843662        0.4547615697       -0.9189208565
 H         -0.3901357936        0.5593878276        0.8471588495
 H          1.9194512192       -0.5526399474        0.8537019296
 H          1.8713250610       -0.5200270229       -0.9076534652
 H          2.0612120991        1.9136739109        0.9441186998
 H          2.5241704341        1.4155035761       -2.0478893464
 H          3.4103028441        3.6960805481       -2.0998565347
 H          3.0710619248        3.8921535470       -0.3051043651
  14
    -0.206487 !GC
 C          0.0000000000        0.0000000000        0.0000000000
 C          1.5423640843        0.0000000000        0.0000000000
 C          1.9938014694        1.4111203754        0.0000000000
 C          2.6563013832        1.9633232443       -1.0753090517
 C          3.1148147452        3.2514503464       -1.1445036037
 H         -0.3713646199        0.5388409426       -0.8684974599
 H         -0.3834371130        0.4761851660        0.8985162774
 H         -0.3728354030       -1.0201914633       -0.0462880862
 H          1.9186806905       -0.5446823463        0.8610116040
 H          1.8602900654       -0.4925740513       -0.9251626534
 H          1.8163532438        2.0030816874        0.8858641624
 H          2.8161953715        1.3125922317       -1.9308486619
 H          3.6198591354        3.6237752522       -2.0161955713
 H          2.9785073978        3.9322137001       -0.3227899263
  14
    -0.197937 !GC
 C          0.0000000000        0.0000000000        0.0000000000
 C          1.5328937091        0.0000000000        0.0000000000
 C          2.0815537606        1.3793331054        0.0000000000
 C          1.3246436209        2.5155310468        0.1869633437
 C          1.8195250576        3.7927481062        0.1655112090
 H         -0.3799876441       -1.0171634019       -0.0651336481
 H         -0.3757654923        0.5625881309       -0.8506240257
 H         -0.3784811535        0.4517998089        0.9134836386
 H          1.9312352104       -0.5736343552        0.8332040972
 H          1.8431976880       -0.4960262957       -0.9323973739
 H          3.1379755814        1.4825503321       -0.2050651579
 H          0.2638651586        2.3851011394        0.3693605336
 H          1.1856756754        4.6452004057        0.3238807605
 H          2.8643975467        3.9799934497       -0.0092435774
  14
    -0.189724 !GC
 C          0.0000000000        0.0000000000        0.0000000000
 C          1.5327122828        0.0000000000        0.0000000000
 C          2.0822030726        1.3792011995        0.0000000000
 C          1.3285002423        2.5147629888        0.2037112429
 C          1.8243167718        3.7917048897        0.1843140257
 H         -0.3730037490       -1.0196547042       -0.0593494978
 H         -0.3796218068        0.5605872201       -0.8511751438
 H         -0.3795942768        0.4585225427        0.9103328186
 H          1.9293793996       -0.5734032071        0.8340539242
 H          1.8423129472       -0.4968499547       -0.9323228158
 H          3.1360817359        1.4830074842       -0.2175273481
 H          0.2703382663        2.3840532818        0.4006322294
 H          1.1925372463        4.6440410665        0.3528626701
 H          2.8664142406        3.9793467825       -0.0075132676
  14
    -0.183318 !GC
 C          0.0000000000        0.0000000000        0.0000000000
 C          1.5420583849        0.0000000000        0.0000000000
 C          2.0618575561        1.3866877764        0.0000000000
 C          1.9802753303        2.2651845859        1.0558187610
 C          2.4483296287        3.5538631676        1.0351965560
 H         -0.3759746303        0.5440356777       -0.8629391305
 H         -0.3707308036        0.4792976600        0.9025120534
 H         -0.3787456947       -1.0182359624       -0.0381859472
 H          1.9113858397       -0.5496676519        0.8621055843
 H          1.8571447905       -0.5007795460       -0.9218159526
 H          2.5072538501        1.7211846306       -0.9274274270
 H          1.5139814165        1.9108608272        1.9679401551
 H          2.3599539006        4.1984562105        1.8897834872
 H          2.9200463833        3.9586659797        0.1575324914
  14
    -0.180176 !GC
 C          0.0000000000        0.0000000000        0.0000000000
 C          1.5327975709        0.0000000000        0.0000000000
 C          2.0829398507        1.3789390144        0.0000000000
 C          1.3335370169        2.5131863067        0.2249482959
 C          1.8300481613        3.7897803559        0.2101669117
 H         -0.3763848235       -1.0186887678       -0.0566856746
 H         -0.3741939116        0.5615778863       -0.8519813651
 H         -0.3833356269        0.4542139947        0.9107928478
 H          1.9305467254       -0.5743186100        0.8330417045
 H          1.8430434006       -0.4960161898       -0.9327645066
 H          3.1335633488        1.4836038489       -0.2316866491
 H          0.2788879969        2.3813165735        0.4382585912
 H          1.2016618107        4.6410678136        0.3956391237
 H          2.8692037365        3.9785687568        0.0039277962
  14
    -0.161329 !GC
 C          0.0000000000        0.0000000000        0.0000000000
 C          1.5264829780        0.0000000000        0.0000000000
 C          2.1099588376        1.3626944077        0.0000000000
 C          2.2876257172        2.1653701325        1.1037486370
 C          2.8168636691        3.4298926330        1.0651092857
 H         -0.3507649087       -1.0278520307        0.0725671638
 H         -0.3931463965        0.4397842556       -0.9130739405
 H         -0.3892887685        0.5533776673        0.8511582015
 H          1.9122096677       -0.5567387225        0.8554106416
 H          1.8683186820       -0.5277293993       -0.9042876330
 H          2.3709973004        1.7495112708       -0.9765820767
 H          1.9907113657        1.7709185121        2.0681115804
 H          2.9331385541        4.0190124865        1.9560731014
 H          3.1342807087        3.8708649295        0.1361358004
  14
    -0.152265 !GC
 C          0.0000000000        0.0000000000        0.0000000000
 C          1.5259821003        0.0000000000        0.0000000000
 C          2.1127765726        1.3609846772        0.0000000000
 C          2.2721612082        2.1750202070        1.0977313730
 C          2.8068081471        3.4369626457        1.0555689748
 H         -0.3857230323       -1.0152446626        0.0515260697
 H         -0.3516692368        0.4560748592       -0.9235722553
 H         -0.3960089778        0.5646938928        0.8407545303
 H          1.9121832978       -0.5576951224        0.8548440566
 H          1.8681874235       -0.5281469644       -0.9041254915
 H          2.3965819847        1.7357616932       -0.9746249306
 H          1.9541380128        1.7935790415        2.0601600513
 H          2.9051903216        4.0364763494        1.9415461583
 H          3.1418708287        3.8674318508        0.1283020554
  14
    -0.147705 !GC
 C          0.0000000000        0.0000000000        0.0000000000
 C          1.5420183903        0.0000000000        0.0000000000
 C          1.9937915005        1.4110823448        0.0000000000
 C          2.6288471050        1.9723462852       -1.0869755858
 C          3.0822161083        3.2620619948       -1.1581122472
 H         -0.3671686228       -1.0227302196       -0.0443405639
 H         -0.3688600065        0.5370070816       -0.8699746508
 H         -0.3913910418        0.4710442934        0.8982901465
 H          1.9186941769       -0.5456511684        0.8603068756
 H          1.8602191935       -0.4918206472       -0.9256433362
 H          1.8371339599        1.9966833567        0.8936083398
 H          2.7669705441        1.3290436113       -1.9517293232
 H          3.5660966526        3.6422001239       -2.0385441566
 H          2.9651542342        3.9359283426       -0.3277660465
  14
    -0.141244 !GC
 C          0.0000000000        0.0000000000        0.0000000000
 C          1.5422013306        0.0000000000        0.0000000000
 C          1.9934495930        1.4110809900        0.0000000000
 C          2.6461511583        1.9670521585       -1.0790664841
 C          3.1050062598        3.2548074439       -1.1474226449
 H         -0.3883049717       -1.0145234844       -0.0436766906
 H         -0.3661132334        0.5535156890       -0.8606687769
 H         -0.3731446072        0.4798628861        0.9011930293
 H          1.9184557590       -0.5450178508        0.8607468561
 H          1.8602710907       -0.4921251515       -0.9251839537
 H          1.8240557100        2.0003906736        0.8887527208
 H          2.7980440353        1.3196173662       -1.9381582941
 H          3.6037543716        3.6301854285       -2.0212023901
 H          2.9766621584        3.9319319252       -0.3219630561
  14
    -0.132605 !GC
 C          0.0000000000        0.0000000000        0.0000000000
 C          1.5420171287        0.0000000000        0.0000000000
 C          1.9933909045        1.4112461633        0.0000000000
 C          2.6553103091        1.9637541809       -1.0757232224
 C          3.1125697735        3.2525166788       -1.1453369106
 H         -0.3673110997       -1.0232532346       -0.0290052468
 H         -0.3882143177        0.5412199192       -0.8593091068
 H         -0.3700786240        0.4712242647        0.9078361583
 H          1.9173354645       -0.5447753586        0.8614186299
 H          1.8596860801       -0.4929396824       -0.9251240155
 H          1.8163741648        2.0031446172        0.8859737160
 H          2.8147078105        1.3132436395       -1.9317262387
 H          3.6206510079        3.6240803472       -2.0158527148
 H          2.9787390129        3.9324641187       -0.3221889959
  14
    -0.122398 !GC
 C          0.0000000000        0.0000000000        0.0000000000
 C          1.5420255818        0.0000000000        0.0000000000
 C          2.0623997067        1.3866230487        0.0000000000
 C          3.3900486743        1.7363530584       -0.0898915510
 C          3.8582620701        3.0249925726       -0.0865809615
 H         -0.3724676155       -1.0210705273        0.0075484601
 H         -0.3721206597        0.5044506171       -0.8884703707
 H         -0.3805498864        0.5152753360        0.8786066985
 H          1.8817393078       -0.5242890921        0.8952266380
 H          1.8863197919       -0.5280998437       -0.8903970146
 H          1.3182024410        2.1676548918        0.0800745315
 H          4.1155281551        0.9349607549       -0.1672708210
 H          4.9080179660        3.2425958753       -0.1557588771
 H          3.1841481383        3.8597327846       -0.0103585385
  14
    -0.087192 !GC
 C          0.0000000000        0.0000000000        0.0000000000
 C          1.5421279022        0.0000000000        0.0000000000
 C          1.9933699035        1.4112562485        0.0000000000
 C          1.1000770398        2.4610477510        0.0143123010
 C          1.4393994365        3.7873935935        0.0184946885
 H         -0.3671952872        0.5016168895       -0.8925466205
 H         -0.3885256317        0.5131031936        0.8760172734
 H         -0.3716250598       -1.0216146584       -0.0051358464
 H          1.8897393252       -0.5195522295        0.8938656916
 H          1.8895270431       -0.5198467471       -0.8938883007
 H          3.0555575660        1.6069626175       -0.0103376405
 H          0.0454805340        2.1988385378        0.0213136081
 H          0.6931288192        4.5599210297        0.0317363651
 H          2.4703548469        4.0946724589        0.0121569274
  14
    -0.084171 !GC
 C          0.0000000000        0.0000000000        0.0000000000
 C          1.5420029981        0.0000000000        0.0000000000
 C          1.9929288122        1.4112439322        0.0000000000
 C          1.1002864879        2.4611601631        0.0213892728
 C          1.4396621841        3.7872013746        0.0252909901
 H         -0.3877452217        0.5072364817       -0.8802559228
 H         -0.3684420543        0.5028307275        0.8902467576
 H         -0.3710850298       -1.0220198604        0.0032992589
 H          1.8894742135       -0.5201649571        0.8935120540
 H          1.8896658440       -0.5191864937       -0.8939875261
 H          3.0545322895        1.6073136699       -0.0150560106
 H          0.0460938890        2.1991356977        0.0358404982
 H          0.6941472825        4.5602149708        0.0411943644
 H          2.4703503656        4.0940430990        0.0110814828
  14
    -0.059091 !GC
 C          0.0000000000        0.0000000000        0.0000000000
 C          1.5417114292        0.0000000000        0.0000000000
 C          2.0614532718        1.3868165142        0.0000000000
 C          1.9804014237        2.2651846018        1.0561836855
 C          2.4496435284        3.5536488431        1.0358752203
 H         -0.3719294203       -1.0210793862       -0.0363024498
 H         -0.3755257930        0.5431671894       -0.8640481833
 H         -0.3759986172        0.4772788022        0.9020966399
 H          1.9100369033       -0.5497580145        0.8625067678
 H          1.8565404104       -0.5011447754       -0.9217734860
 H          2.5064126197        1.7216030181       -0.9275146944
 H          1.5147358368        1.9106581609        1.9687373455
 H          2.3582641231        4.1995287566        1.8894439347
 H          2.9187458708        3.9594169062        0.1569262829
  14
    -0.053774 !GC
 C          0.0000000000        0.0000000000        0.0000000000
 C          1.5418222027        0.0000000000        0.0000000000
 C          2.0614329769        1.3868330233        0.0000000000
 C          3.3898156027        1.7370480817       -0.0776520497
 C          3.8572240403        3.0261395663       -0.0729798676
 H         -0.3718144789        0.5070673007       -0.8872285926
 H         -0.3758411959        0.5164136611        0.8799326811
 H         -0.3775377405       -1.0193412171        0.0028839542
 H          1.8823098360       -0.5244395170        0.8949490965
 H          1.8864222590       -0.5278597911       -0.8903647741
 H          1.3161366996        2.1676768130        0.0720635296
 H          4.1167989296        0.9356862753       -0.1429725121
 H          4.9073835820        3.2441935382       -0.1329628392
 H          3.1817340191        3.8606704853       -0.0093772046
  14
    -0.038123 !GC
 C          0.0000000000        0.0000000000        0.0000000000
 C          1.5266257976        0.0000000000        0.0000000000
 C          2.0426767929        1.3902350614        0.0000000000
 C          2.5013236791        2.0122669145       -1.1415682545
 C          2.9974938234        3.2869065582       -1.1968178078
 H         -0.3632222924        0.5708300544        0.8526165545
 H         -0.3885611516       -1.0130102082        0.0631051476
 H         -0.3837077381        0.4585053641       -0.9081448166
 H          1.9192518954       -0.5520199846        0.8539987787
 H          1.8714336241       -0.5191601106       -0.9078436675
 H          2.0879876709        1.9054548571        0.9483924509
 H          2.4566681403        1.4368131643       -2.0613201055
 H          3.3406736386        3.7193182501       -2.1183201116
 H          3.0554567251        3.8970482368       -0.3123709854
  14
    -0.027291 !GC
 C          0.0000000000        0.0000000000        0.0000000000
 C          1.5354763208        0.0000000000        0.0000000000
 C          2.0218967407        1.3970875700        0.0000000000
 C          3.2511348878        1.7752582145       -0.4912725934
 C          3.7416820029        3.0549866840       -0.4838914389
 H         -0.3586460713       -1.0262779173        0.0497887447
 H         -0.3869444208        0.4699309162       -0.9007362130
 H         -0.3794276340        0.5437040684        0.8620708287
 H          1.9271528696       -0.5514913728        0.8488578724
 H          1.8552833283       -0.4962127301       -0.9284059459
 H          1.3813427971        2.1304776897        0.4696146056
 H          3.8692207533        0.9909878482       -0.9180441124
 H          4.7127354333        3.2887968131       -0.8793426043
 H          3.1651842580        3.8664382652       -0.0757024712
  14
    -0.015914 !GC
 C          0.0000000000        0.0000000000        0.0000000000
 C          1.5330592385        0.0000000000        0.0000000000
 C          2.0826049222        1.3790712205        0.0000000000
 C          1.3289588934        2.5145952114        0.2030043315
 C          1.8244322622        3.7914359076        0.1823317593
 H         -0.3770474588        0.5632065196       -0.8501333453
 H         -0.3748315345        0.4594424398        0.9112353403
 H         -0.3823357528       -1.0159717948       -0.0585131965
 H          1.9307171571       -0.5732820085        0.8336340853
 H          1.8429195748       -0.4964828940       -0.9323644554
 H          3.1366144708        1.4826537050       -0.2170759085
 H          0.2708202476        2.3838908758        0.3991720406
 H          1.1933748972        4.6433806153        0.3541644577
 H          2.8668298954        3.9789247806       -0.0064789986
  14
    -0.015847 !GC
 C          0.0000000000        0.0000000000        0.0000000000
 C          1.5327597211        0.0000000000        0.0000000000
 C          2.0830267678        1.3789030866        0.0000000000
 C          1.3344225431        2.5129373227        0.2287195275
 C          1.8310792851        3.7894698764        0.2130539621
 H         -0.3727914659        0.4603303379        0.9119927926
 H         -0.3769772990       -1.0181162470       -0.0561908895
 H         -0.3841775883        0.5589413797       -0.8497616086
 H          1.9305854671       -0.5740658033        0.8331527020
 H          1.8428758973       -0.4962358257       -0.9326989887
 H          3.1327683618        1.4838181466       -0.2359184536
 H          0.2801225935        2.3811737082        0.4440594748
 H          1.2037361920        4.6405323381        0.4027864428
 H          2.8698272579        3.9780171167        0.0050839910
  14
    -0.014692 !GC
 C          0.0000000000        0.0000000000        0.0000000000
 C          1.5325941918        0.0000000000        0.0000000000
 C          2.0819756716        1.3791654338        0.0000000000
 C          1.3297667847        2.5140142571        0.2127455925
 C          1.8257545753        3.7909569305        0.1963108095
 H         -0.3757344445        0.5614462486       -0.8528608645
 H         -0.3779097840        0.4563250278        0.9111049060
 H         -0.3803250620       -1.0164164028       -0.0661326080
 H          1.9311035634       -0.5744177167        0.8327222877
 H          1.8431540793       -0.4957791022       -0.9327316826
 H          3.1343517220        1.4836223350       -0.2239657958
 H          0.2725655532        2.3826342655        0.4143765499
 H          1.1953728176        4.6426299065        0.3726294913
 H          2.8672558036        3.9791400123        0.0023381264
  14
    -0.011146 !GC
 C          0.0000000000        0.0000000000        0.0000000000
 C          1.5330970882        0.0000000000        0.0000000000
 C          2.0825179964        1.3791070831        0.0000000000
 C          1.3281538415        2.5148111749        0.1992171561
 C          1.8234808075        3.7917169350        0.1794247908
 H         -0.3806343933        0.4545565088        0.9113650038
 H         -0.3720464491       -1.0193722246       -0.0618920199
 H         -0.3814927498        0.5613822889       -0.8495962098
 H          1.9306784170       -0.5735348980        0.8335233140
 H          1.8430870570       -0.4962633298       -0.9324300613
 H          3.1373306265        1.4824716894       -0.2128251292
 H          0.2697046845        2.3839873269        0.3933496623
 H          1.1914531399        4.6438499900        0.3469793471
 H          2.8662527126        3.9794538186       -0.0076500716
  14
    -0.009096 !GC
 C          0.0000000000        0.0000000000        0.0000000000
 C          1.5325467535        0.0000000000        0.0000000000
 C          2.0811518357        1.3794630483        0.0000000000
 C          1.3241754125        2.5157023225        0.1876699758
 C          1.8193832122        3.7930281112        0.1674983294
 H         -0.3759462997        0.4559737476        0.9133803349
 H         -0.3805531082       -1.0165015668       -0.0640622211
 H         -0.3757334859        0.5656552020       -0.8496584182
 H          1.9298976193       -0.5737561724        0.8336244118
 H          1.8425911327       -0.4963933708       -0.9323560042
 H          3.1374480635        1.4829020254       -0.2055187468
 H          0.2633632766        2.3852708829        0.3708197006
 H          1.1848558362        4.6458523127        0.3225727348
 H          2.8639998537        3.9804059281       -0.0102771154
  14
    -0.006596 !GC
 C          0.0000000000        0.0000000000        0.0000000000
 C          1.5421657519        0.0000000000        0.0000000000
 C          1.9932806853        1.4112833612        0.0000000000
 C          1.0998689088        2.4610052055        0.0103596790
 C          1.4387951399        3.7874448123        0.0151497826
 H         -0.3707967659        0.5219964855        0.8792713094
 H         -0.3857509833       -1.0160006237        0.0022497789
 H         -0.3707752063        0.5180309931       -0.8813027685
 H          1.8896979845       -0.5198152575        0.8937688065
 H          1.8896913325       -0.5196315355       -0.8939556597
 H          3.0553948776        1.6071108978       -0.0060592518
 H          0.0453851211        2.1984999996        0.0154186738
 H          0.6922920072        4.5598728041        0.0239108814
 H          2.4697456490        4.0951293221        0.0104815238
  14
    -0.005595 !GC
 C          0.0000000000        0.0000000000        0.0000000000
 C          1.5420817255        0.0000000000        0.0000000000
 C          1.9929294956        1.4113350903        0.0000000000
 C          1.0999847890        2.4611430011        0.0187231208
 C          1.4395521312        3.7872287874        0.0222540595
 H         -0.3672662742        0.5070504949        0.8892683274
 H         -0.3718241543       -1.0215317397        0.0118877404
 H         -0.3883495314        0.5073180552       -0.8794299162
 H          1.8898902500       -0.5197278507        0.8936214609
 H          1.8894958176       -0.5193507271       -0.8940528682
 H          3.0547542544        1.6075191092       -0.0141503231
 H          0.0455390296        2.1991322153        0.0314812678
 H          0.6939302243        4.5602491742        0.0409359826
 H          2.4704928652        4.0938847788        0.0127283969
  14
    -0.003210 !GC
 C          0.0000000000        0.0000000000        0.0000000000
 C          1.5421685275        0.0000000000        0.0000000000
 C          1.9939944332        1.4110445094        0.0000000000
 C          1.1023904578        2.4612706386        0.0381151739
 C          1.4426567441        3.7869235562        0.0437757512
 H         -0.3848101821        0.5111230522        0.8786347981
 H         -0.3675036651       -1.0230879203       -0.0054325534
 H         -0.3749508947        0.5014497389       -0.8889205878
 H          1.8889469213       -0.5197541189        0.8938902299
 H          1.8893996155       -0.5196417062       -0.8939554967
 H          3.0554837455        1.6065643072       -0.0271827963
 H          0.0484554040        2.1999085351        0.0661991094
 H          0.6979157629        4.5602971089        0.0737492151
 H          2.4732754736        4.0930983008        0.0156730103
  14
    -0.001100 !GC
 C          0.0000000000        0.0000000000        0.0000000000
 C          1.5420645670        0.0000000000        0.0000000000
 C          1.9942318678        1.4110032446        0.0000000000
 C          2.6333735354        1.9703758476       -1.0857581251
 C          3.0868010132        3.2602296862       -1.1577277221
 H         -0.3670976210        0.4883893531        0.8998775650
 H         -0.3855748154       -1.0154231985       -0.0353521109
 H         -0.3746823675        0.5504855024       -0.8595451506
 H          1.9185478587       -0.5454913514        0.8605601469
 H          1.8602470808       -0.4923285602       -0.9254939773
 H          1.8341952278        1.9976877470        0.8925725696
 H          2.7762274079        1.3249184032       -1.9483131111
 H          3.5755013887        3.6377385429       -2.0366457989
 H          2.9674815227        3.9357922828       -0.3288644465
  14
    -0.000666 !GC
 C          0.0000000000        0.0000000000        0.0000000000
 C          1.5418543749        0.0000000000        0.0000000000
 C          1.9930390198        1.4112067688        0.0000000000
 C          2.6451564312        1.9674835333       -1.0794748156
 C          3.1027553189        3.2558764648       -1.1482373350
 H         -0.3842796300        0.4732376906        0.9003212447
 H         -0.3709128814       -1.0207369875       -0.0512112091
 H         -0.3703887421        0.5409216723       -0.8678176523
 H          1.9171105759       -0.5451110054        0.8611537883
 H          1.8596671652       -0.4924907587       -0.9251455174
 H          1.8240775798        2.0004538904        0.8888578130
 H          2.7965482774        1.3202701634       -1.9390241077
 H          3.6045463605        3.6304886247       -2.0208667312
 H          2.9769006850        3.9321781857       -0.3213700201
  14
    -0.000253 !GC
 C          0.0000000000        0.0000000000        0.0000000000
 C          1.5423179077        0.0000000000        0.0000000000
 C          1.9933610917        1.4111992719        0.0000000000
 C          2.6518040779        1.9652888078       -1.0766241719
 C          3.1102471447        3.2532796685       -1.1449967559
 H         -0.3714348466        0.4672800678        0.9088048030
 H         -0.3667081752       -1.0227037053       -0.0315960771
 H         -0.3895532259        0.5421322720       -0.8579255164
 H          1.9188270045       -0.5448423988        0.8607585124
 H          1.8602621867       -0.4920662718       -0.9253121572
 H          1.8192710479        2.0020806037        0.8869740849
 H          2.8070149787        1.3167045559       -1.9344731159
 H          3.6105044041        3.6282348560       -2.0183017367
 H          2.9761652204        3.9323561712       -0.3217429273
  14
    -0.000142 !GC
 C          0.0000000000        0.0000000000        0.0000000000
 C          1.5351381967        0.0000000000        0.0000000000
 C          2.0251707271        1.3956491417        0.0000000000
 C          3.2685309568        1.7684993978       -0.4582545580
 C          3.7587329386        3.0484708211       -0.4509782186
 H         -0.3765853936        0.4742770212       -0.9030930540
 H         -0.3628423820        0.5521992824        0.8650027813
 H         -0.3858663401       -1.0161458102        0.0437441716
 H          1.9273503930       -0.5521082442        0.8485615526
 H          1.8551683343       -0.4970921823       -0.9282427310
 H          1.3702898264        2.1345318847        0.4405783614
 H          3.8999029721        0.9799092132       -0.8564739453
 H          4.7418824916        3.2770818602       -0.8186646680
 H          3.1716086111        3.8645309693       -0.0678022702
  14
    -0.000068 !GC
 C          0.0000000000        0.0000000000        0.0000000000
 C          1.5358232764        0.0000000000        0.0000000000
 C          2.0223039331        1.3969602532        0.0000000000
 C          3.2516995226        1.7749104911       -0.4905810752
 C          3.7429100691        3.0541632648       -0.4820551332
 H         -0.3627159165        0.4723796937       -0.9107084372
 H         -0.3821658631        0.5477074157        0.8572741752
 H         -0.3821689343       -1.0168166815        0.0392299036
 H          1.9284908556       -0.5513838634        0.8484391027
 H          1.8558884339       -0.4958456185       -0.9284452486
 H          1.3814932470        2.1303969187        0.4692269203
 H          3.8698500419        0.9905118541       -0.9166155379
 H          4.7124301424        3.2882890102       -0.8804873386
 H          3.1654989703        3.8660320269       -0.0767067556
