  14
        -15.20771007
 C         -2.2915027857        0.4424733254        0.2833906983
 C         -1.2372864858       -0.5565357287       -0.2074752111
 C          0.0845405343        0.0916434099       -0.3985049393
 C          1.2439172562       -0.3111295418        0.2278024505
 C          2.4654124632        0.2863301988        0.0633568665
 H         -2.4003649908        1.2594025566       -0.4260093609
 H         -1.9976107105        0.8579192995        1.2444959631
 H         -3.2540397421       -0.0500405547        0.3964780888
 H         -1.1512034080       -1.3804613276        0.5035937356
 H         -1.5791387865       -0.9694418203       -1.1637263953
 H          0.1175124660        0.9428638068       -1.0641469615
 H          1.1815326091       -1.1631942078        0.8950589358
 H          3.3399261992       -0.0694449262        0.5758611391
 H          2.5846514183        1.1350562071       -0.5870801031
