  14
  -15.207710069999999       0.14818402544585288      !
 C         -2.2915027857        0.4424733254        0.2833906983
 C         -1.2372864858       -0.5565357287       -0.2074752111
 C          0.0845405343        0.0916434099       -0.3985049393
 C          1.2439172562       -0.3111295418        0.2278024505
 C          2.4654124632        0.2863301988        0.0633568665
 H         -2.4003649908        1.2594025566       -0.4260093609
 H         -1.9976107105        0.8579192995        1.2444959631
 H         -3.2540397421       -0.0500405547        0.3964780888
 H         -1.1512034080       -1.3804613276        0.5035937356
 H         -1.5791387865       -0.9694418203       -1.1637263953
 H          0.1175124660        0.9428638068       -1.0641469615
 H          1.1815326091       -1.1631942078        0.8950589358
 H          3.3399261992       -0.0694449262        0.5758611391
 H          2.5846514183        1.1350562071       -0.5870801031
  14
  -15.207710049999999       0.14818088932763196      !
 C         -2.2916693973        0.4424261585        0.2832168174
 C         -1.2372630673       -0.5565095465       -0.2073491147
 C          0.0845214145        0.0917974029       -0.3982722881
 C          1.2440140281       -0.3112377861        0.2276884604
 C          2.4654985342        0.2863109136        0.0633015786
 H         -3.2541357719       -0.0503031356        0.3961204512
 H         -2.4005493744        1.2593171305       -0.4262584424
 H         -1.9979692270        0.8579530758        1.2443782194
 H         -1.1511793564       -1.3804116382        0.5037587601
 H         -1.5789483330       -0.9694858657       -1.1636300649
 H          0.1173702138        0.9433431253       -1.0635097982
 H          1.1817229731       -1.1635534477        0.8946521005
 H          3.3400751586       -0.0695870927        0.5756377881
 H          2.5846341340        1.1353215962       -0.5868097282
  14
  -15.207709800000000       0.14814169344939579      !
 C         -2.2939169359        0.4416809840        0.2809817878
 C         -1.2367718732       -0.5560090861       -0.2057302115
 C          0.0844551883        0.0939178870       -0.3950842316
 C          1.2451870498       -0.3123804627        0.2264162283
 C          2.4663591081        0.2858143803        0.0624203069
 H         -2.0030029363        0.8590975047        1.2421624162
 H         -3.2557561843       -0.0525449651        0.3925418412
 H         -2.4026852494        1.2573083832       -0.4299897714
 H         -1.1508176971       -1.3789207140        0.5065839465
 H         -1.5757676442       -0.9710094808       -1.1621605671
 H          0.1161301953        0.9485698427       -1.0564195662
 H          1.1841553573       -1.1677671570        0.8895324403
 H          3.3420019694       -0.0728204117        0.5710040226
 H          2.5842480100        1.1378618688       -0.5839014922
  14
  -15.207706679999999       0.14765340009913086      !
 C         -2.2961375987        0.5189004545        0.0619752421
 C         -1.2362662012       -0.5574246385       -0.1985206408
 C          0.0838261737       -0.1760270408        0.3635297912
 C          1.2468687515       -0.0984335147       -0.3713385534
 C          2.4672793095        0.2573602024        0.1385889610
 H         -2.0086207556        1.4535259943       -0.4139196393
 H         -2.4046185842        0.6951774345        1.1295364706
 H         -3.2574500560        0.2059924964       -0.3378294483
 H         -1.5740441293       -1.4878850503        0.2728492644
 H         -1.1487222787       -0.7368740643       -1.2718823768
 H          0.1130683098        0.0646648435        1.4170827943
 H          1.1884986532       -0.3391114279       -1.4267148228
 H          3.3447882717        0.3014003506       -0.4794871231
 H          2.5825332511        0.5059376952        1.1790636542
  14
  -15.207706290000001       0.14759247670578524      !
 C         -2.2956634502        0.5192671733        0.0627539026
 C         -1.2363689203       -0.5573159805       -0.1994120553
 C          0.0838860203       -0.1777278725        0.3634244223
 C          1.2465520027       -0.0969687254       -0.3717084752
 C          2.4670771638        0.2572032924        0.1390721193
 H         -2.4041189051        0.6939268399        1.1305253920
 H         -3.2570942674        0.2075995757       -0.3376762698
 H         -2.0076079953        1.4544613037       -0.4116476533
 H         -1.5746612025       -1.4883938554        0.2703233756
 H         -1.1486864263       -0.7349462709       -1.2730867383
 H          0.1135713042        0.0585542175        1.4179936992
 H          1.1880731135       -0.3349761860       -1.4277326056
 H          3.3442397074        0.3039494707       -0.4792062345
 H          2.5827614269        0.5016709973        1.1804556468
  14
  -15.207705250000000       0.14743013718981188      !
 C         -2.2931498064        0.5207608148        0.0660051789
 C         -1.2369063275       -0.5571549837       -0.2032907232
 C          0.0839418656       -0.1848588830        0.3630331882
 C          1.2452131027       -0.0916917125       -0.3727852952
 C          2.4661618380        0.2568794725        0.1408752794
 H         -3.2554382166        0.2146609003       -0.3367003171
 H         -2.0020561937        1.4582947841       -0.4019100203
 H         -2.4012392542        0.6883968954        1.1349859403
 H         -1.5782625392       -1.4904474534        0.2596117343
 H         -1.1493446679       -0.7269229443       -1.2782003319
 H          0.1149231214        0.0373790995        1.4205763454
 H          1.1849027349       -0.3130590447       -1.4322595777
 H          3.3422611045        0.3135337206       -0.4781891518
 H          2.5833777578        0.4862443971        1.1855168981
  14
  -15.206417849999999        3.7751846125125006E-002 !
 C         -1.9556164167        0.4293964226        0.5767075816
 C         -1.3385371317       -0.4367515966       -0.5144176334
 C          0.1480945997       -0.4470632094       -0.5652003109
 C          1.0043107498        0.2323112420        0.2730800464
 C          2.3706571706        0.1833485026        0.1765331033
 H         -1.6415223787        0.0912797339        1.5612969555
 H         -3.0403375761        0.3703102790        0.5257153731
 H         -1.6644397556        1.4698632691        0.4537200823
 H         -1.6853316408       -1.4708861810       -0.3940106501
 H         -1.7132842526       -0.1080027592       -1.4918933534
 H          0.5802457078       -1.0580500431       -1.3469162757
 H          0.5805744619        0.8437015833        1.0580035065
 H          3.0024081350        0.7299318674        0.8520396779
 H          2.8539821195       -0.4062954282       -0.5828597015
  14
  -15.206412360000000        3.7533162998422624E-002 !
 C         -1.9556725341        0.4293357985        0.5767627716
 C         -1.3385297796       -0.4359343099       -0.5150360840
 C          0.1481609309       -0.4494599119       -0.5633467782
 C          1.0042751522        0.2345884536        0.2713247049
 C          2.3706870485        0.1826325889        0.1770775446
 H         -1.6646098693        1.4699454945        0.4546225992
 H         -1.6414667348        0.0903496392        1.5610888758
 H         -3.0404291138        0.3702113940        0.5256837645
 H         -1.6877803981       -1.4695036062       -0.3975260769
 H         -1.7108517528       -0.1042096861       -1.4924904218
 H          0.5804084611       -1.0658879246       -1.3408084215
 H          0.5804588489        0.8526845553        1.0509949400
 H          3.0023398460        0.7328858406        0.8497152730
 H          2.8540843722       -0.4136850877       -0.5771307244
  14
  -15.206412340000000        3.7532368658843761E-002 !
 C         -1.9555179631        0.4293764992        0.5767734512
 C         -1.3385628095       -0.4361046472       -0.5149976392
 C          0.1481074305       -0.4491484751       -0.5635870459
 C          1.0042346002        0.2343004250        0.2715749875
 C          2.3706398789        0.1827526482        0.1770127890
 H         -3.0402504724        0.3702087401        0.5256086794
 H         -1.6644566860        1.4700029738        0.4546043683
 H         -1.6413992259        0.0904857547        1.5611651956
 H         -1.6874526676       -1.4697801598       -0.3971496342
 H         -1.7111566691       -0.1047596496       -1.4924657030
 H          0.5803400570       -1.0647547807       -1.3416769408
 H          0.5804271259        0.8515259324        1.0519304295
 H          3.0022969930        0.7324762746        0.8500502658
 H          2.8540397243       -0.4127792772       -0.5778499259
