  14
        -15.20771007
 C         -2.2915027857        0.4424733254        0.2833906983
 C         -1.2372864858       -0.5565357287       -0.2074752111
 C          0.0845405343        0.0916434099       -0.3985049393
 C          1.2439172562       -0.3111295418        0.2278024505
 C          2.4654124632        0.2863301988        0.0633568665
 H         -2.4003649908        1.2594025566       -0.4260093609
 H         -1.9976107105        0.8579192995        1.2444959631
 H         -3.2540397421       -0.0500405547        0.3964780888
 H         -1.1512034080       -1.3804613276        0.5035937356
 H         -1.5791387865       -0.9694418203       -1.1637263953
 H          0.1175124660        0.9428638068       -1.0641469615
 H          1.1815326091       -1.1631942078        0.8950589358
 H          3.3399261992       -0.0694449262        0.5758611391
 H          2.5846514183        1.1350562071       -0.5870801031
  14
        -15.20641785
 C         -1.9556164167        0.4293964226        0.5767075816
 C         -1.3385371317       -0.4367515966       -0.5144176334
 C          0.1480945997       -0.4470632094       -0.5652003109
 C          1.0043107498        0.2323112420        0.2730800464
 C          2.3706571706        0.1833485026        0.1765331033
 H         -1.6415223787        0.0912797339        1.5612969555
 H         -3.0403375761        0.3703102790        0.5257153731
 H         -1.6644397556        1.4698632691        0.4537200823
 H         -1.6853316408       -1.4708861810       -0.3940106501
 H         -1.7132842526       -0.1080027592       -1.4918933534
 H          0.5802457078       -1.0580500431       -1.3469162757
 H          0.5805744619        0.8437015833        1.0580035065
 H          3.0024081350        0.7299318674        0.8520396779
 H          2.8539821195       -0.4062954282       -0.5828597015
