  14
 Etot=  -15.2061833277 g norm=  0.00006826
 C         -2.3302784462       -0.0540547273       -0.1748413585
 C         -1.0183115654       -0.0424470993       -0.9671363418
 C          0.1342804023       -0.4437831623       -0.1214599931
 C          1.2452216872        0.3406762292        0.0974859130
 C          2.3074557611       -0.0182470934        0.8835155805
 H         -2.5211300181       -1.0450480863        0.2306179124
 H         -3.1630778262        0.2242474437       -0.8164629949
 H         -2.2770197427        0.6510676189        0.6514507986
 H         -1.1185815906       -0.7453885031       -1.8028557616
 H         -0.8494266287        0.9527397527       -1.3836489673
 H          0.0715190345       -1.4106385997        0.3579449608
 H          1.2778961303        1.3080310979       -0.3907119953
 H          3.1520860165        0.6313291465        1.0202671349
 H          2.3264971522       -0.9670118616        1.3905109560
